c cksystemsgroup.github.io/unicorn
c CNF contains a total of 491 clauses.
c CNF contains a total of 117 variables.
c CNF clauses cover 1 bad states.
c Variable name mapping (17 names):
c   1: input[bit=0]
c   2: input[bit=0]
c   4: input[bit=1]
c   6: input[bit=1]
c   11: input[bit=2]
c   16: input[bit=2]
c   21: input[bit=3]
c   29: input[bit=3]
c   34: input[bit=4]
c   45: input[bit=4]
c   51: input[bit=5]
c   65: input[bit=5]
c   70: input[bit=6]
c   87: input[bit=6]
c   92: input[bit=7]
c   112: input[bit=7]
c   117: ?
p cnf 117 491
-1 -2 3 0
1 -3 0
2 -3 0
-4 -2 5 0
4 -5 0
2 -5 0
-1 -6 7 0
1 -7 0
6 -7 0
-8 0
5 7 8 -9 0
5 7 -8 9 0
5 -7 8 9 0
5 -7 -8 -9 0
-5 7 8 9 0
-5 7 -8 -9 0
-5 -7 8 -9 0
-5 -7 -8 9 0
-3 -9 10 0
3 -10 0
9 -10 0
-11 -2 12 0
11 -12 0
2 -12 0
-4 -6 13 0
4 -13 0
6 -13 0
5 7 -14 0
5 8 -14 0
-7 -8 14 0
7 8 -14 0
-5 -8 14 0
-5 -7 14 0
12 13 14 -15 0
12 13 -14 15 0
12 -13 14 15 0
12 -13 -14 -15 0
-12 13 14 15 0
-12 13 -14 -15 0
-12 -13 14 -15 0
-12 -13 -14 15 0
-1 -16 17 0
1 -17 0
16 -17 0
-18 0
15 17 18 -19 0
15 17 -18 19 0
15 -17 18 19 0
15 -17 -18 -19 0
-15 17 18 19 0
-15 17 -18 -19 0
-15 -17 18 -19 0
-15 -17 -18 19 0
-10 -19 20 0
10 -20 0
19 -20 0
-21 -2 22 0
21 -22 0
2 -22 0
-11 -6 23 0
11 -23 0
6 -23 0
12 13 -24 0
12 14 -24 0
-13 -14 24 0
13 14 -24 0
-12 -14 24 0
-12 -13 24 0
22 23 24 -25 0
22 23 -24 25 0
22 -23 24 25 0
22 -23 -24 -25 0
-22 23 24 25 0
-22 23 -24 -25 0
-22 -23 24 -25 0
-22 -23 -24 25 0
-4 -16 26 0
4 -26 0
16 -26 0
15 17 -27 0
15 18 -27 0
-17 -18 27 0
17 18 -27 0
-15 -18 27 0
-15 -17 27 0
25 26 27 -28 0
25 26 -27 28 0
25 -26 27 28 0
25 -26 -27 -28 0
-25 26 27 28 0
-25 26 -27 -28 0
-25 -26 27 -28 0
-25 -26 -27 28 0
-1 -29 30 0
1 -30 0
29 -30 0
-31 0
28 30 31 -32 0
28 30 -31 32 0
28 -30 31 32 0
28 -30 -31 -32 0
-28 30 31 32 0
-28 30 -31 -32 0
-28 -30 31 -32 0
-28 -30 -31 32 0
-20 -32 33 0
20 -33 0
32 -33 0
-34 -2 35 0
34 -35 0
2 -35 0
-21 -6 36 0
21 -36 0
6 -36 0
22 23 -37 0
22 24 -37 0
-23 -24 37 0
23 24 -37 0
-22 -24 37 0
-22 -23 37 0
35 36 37 -38 0
35 36 -37 38 0
35 -36 37 38 0
35 -36 -37 -38 0
-35 36 37 38 0
-35 36 -37 -38 0
-35 -36 37 -38 0
-35 -36 -37 38 0
-11 -16 39 0
11 -39 0
16 -39 0
25 26 -40 0
25 27 -40 0
-26 -27 40 0
26 27 -40 0
-25 -27 40 0
-25 -26 40 0
38 39 40 -41 0
38 39 -40 41 0
38 -39 40 41 0
38 -39 -40 -41 0
-38 39 40 41 0
-38 39 -40 -41 0
-38 -39 40 -41 0
-38 -39 -40 41 0
-4 -29 42 0
4 -42 0
29 -42 0
28 30 -43 0
28 31 -43 0
-30 -31 43 0
30 31 -43 0
-28 -31 43 0
-28 -30 43 0
41 42 43 -44 0
41 42 -43 44 0
41 -42 43 44 0
41 -42 -43 -44 0
-41 42 43 44 0
-41 42 -43 -44 0
-41 -42 43 -44 0
-41 -42 -43 44 0
-1 -45 46 0
1 -46 0
45 -46 0
-47 0
44 46 47 -48 0
44 46 -47 48 0
44 -46 47 48 0
44 -46 -47 -48 0
-44 46 47 48 0
-44 46 -47 -48 0
-44 -46 47 -48 0
-44 -46 -47 48 0
-48 -49 0
48 49 0
-33 -49 50 0
33 -50 0
49 -50 0
-51 -2 52 0
51 -52 0
2 -52 0
-34 -6 53 0
34 -53 0
6 -53 0
35 36 -54 0
35 37 -54 0
-36 -37 54 0
36 37 -54 0
-35 -37 54 0
-35 -36 54 0
52 53 54 -55 0
52 53 -54 55 0
52 -53 54 55 0
52 -53 -54 -55 0
-52 53 54 55 0
-52 53 -54 -55 0
-52 -53 54 -55 0
-52 -53 -54 55 0
-21 -16 56 0
21 -56 0
16 -56 0
38 39 -57 0
38 40 -57 0
-39 -40 57 0
39 40 -57 0
-38 -40 57 0
-38 -39 57 0
55 56 57 -58 0
55 56 -57 58 0
55 -56 57 58 0
55 -56 -57 -58 0
-55 56 57 58 0
-55 56 -57 -58 0
-55 -56 57 -58 0
-55 -56 -57 58 0
-11 -29 59 0
11 -59 0
29 -59 0
41 42 -60 0
41 43 -60 0
-42 -43 60 0
42 43 -60 0
-41 -43 60 0
-41 -42 60 0
58 59 60 -61 0
58 59 -60 61 0
58 -59 60 61 0
58 -59 -60 -61 0
-58 59 60 61 0
-58 59 -60 -61 0
-58 -59 60 -61 0
-58 -59 -60 61 0
-4 -45 62 0
4 -62 0
45 -62 0
44 46 -63 0
44 47 -63 0
-46 -47 63 0
46 47 -63 0
-44 -47 63 0
-44 -46 63 0
61 62 63 -64 0
61 62 -63 64 0
61 -62 63 64 0
61 -62 -63 -64 0
-61 62 63 64 0
-61 62 -63 -64 0
-61 -62 63 -64 0
-61 -62 -63 64 0
-1 -65 66 0
1 -66 0
65 -66 0
-67 0
64 66 67 -68 0
64 66 -67 68 0
64 -66 67 68 0
64 -66 -67 -68 0
-64 66 67 68 0
-64 66 -67 -68 0
-64 -66 67 -68 0
-64 -66 -67 68 0
-50 -68 69 0
50 -69 0
68 -69 0
-70 -2 71 0
70 -71 0
2 -71 0
-51 -6 72 0
51 -72 0
6 -72 0
52 53 -73 0
52 54 -73 0
-53 -54 73 0
53 54 -73 0
-52 -54 73 0
-52 -53 73 0
71 72 73 -74 0
71 72 -73 74 0
71 -72 73 74 0
71 -72 -73 -74 0
-71 72 73 74 0
-71 72 -73 -74 0
-71 -72 73 -74 0
-71 -72 -73 74 0
-34 -16 75 0
34 -75 0
16 -75 0
55 56 -76 0
55 57 -76 0
-56 -57 76 0
56 57 -76 0
-55 -57 76 0
-55 -56 76 0
74 75 76 -77 0
74 75 -76 77 0
74 -75 76 77 0
74 -75 -76 -77 0
-74 75 76 77 0
-74 75 -76 -77 0
-74 -75 76 -77 0
-74 -75 -76 77 0
-21 -29 78 0
21 -78 0
29 -78 0
58 59 -79 0
58 60 -79 0
-59 -60 79 0
59 60 -79 0
-58 -60 79 0
-58 -59 79 0
77 78 79 -80 0
77 78 -79 80 0
77 -78 79 80 0
77 -78 -79 -80 0
-77 78 79 80 0
-77 78 -79 -80 0
-77 -78 79 -80 0
-77 -78 -79 80 0
-11 -45 81 0
11 -81 0
45 -81 0
61 62 -82 0
61 63 -82 0
-62 -63 82 0
62 63 -82 0
-61 -63 82 0
-61 -62 82 0
80 81 82 -83 0
80 81 -82 83 0
80 -81 82 83 0
80 -81 -82 -83 0
-80 81 82 83 0
-80 81 -82 -83 0
-80 -81 82 -83 0
-80 -81 -82 83 0
-4 -65 84 0
4 -84 0
65 -84 0
64 66 -85 0
64 67 -85 0
-66 -67 85 0
66 67 -85 0
-64 -67 85 0
-64 -66 85 0
83 84 85 -86 0
83 84 -85 86 0
83 -84 85 86 0
83 -84 -85 -86 0
-83 84 85 86 0
-83 84 -85 -86 0
-83 -84 85 -86 0
-83 -84 -85 86 0
-1 -87 88 0
1 -88 0
87 -88 0
-89 0
86 88 89 -90 0
86 88 -89 90 0
86 -88 89 90 0
86 -88 -89 -90 0
-86 88 89 90 0
-86 88 -89 -90 0
-86 -88 89 -90 0
-86 -88 -89 90 0
-69 -90 91 0
69 -91 0
90 -91 0
-92 -2 93 0
92 -93 0
2 -93 0
-70 -6 94 0
70 -94 0
6 -94 0
71 72 -95 0
71 73 -95 0
-72 -73 95 0
72 73 -95 0
-71 -73 95 0
-71 -72 95 0
93 94 95 -96 0
93 94 -95 96 0
93 -94 95 96 0
93 -94 -95 -96 0
-93 94 95 96 0
-93 94 -95 -96 0
-93 -94 95 -96 0
-93 -94 -95 96 0
-51 -16 97 0
51 -97 0
16 -97 0
74 75 -98 0
74 76 -98 0
-75 -76 98 0
75 76 -98 0
-74 -76 98 0
-74 -75 98 0
96 97 98 -99 0
96 97 -98 99 0
96 -97 98 99 0
96 -97 -98 -99 0
-96 97 98 99 0
-96 97 -98 -99 0
-96 -97 98 -99 0
-96 -97 -98 99 0
-34 -29 100 0
34 -100 0
29 -100 0
77 78 -101 0
77 79 -101 0
-78 -79 101 0
78 79 -101 0
-77 -79 101 0
-77 -78 101 0
99 100 101 -102 0
99 100 -101 102 0
99 -100 101 102 0
99 -100 -101 -102 0
-99 100 101 102 0
-99 100 -101 -102 0
-99 -100 101 -102 0
-99 -100 -101 102 0
-21 -45 103 0
21 -103 0
45 -103 0
80 81 -104 0
80 82 -104 0
-81 -82 104 0
81 82 -104 0
-80 -82 104 0
-80 -81 104 0
102 103 104 -105 0
102 103 -104 105 0
102 -103 104 105 0
102 -103 -104 -105 0
-102 103 104 105 0
-102 103 -104 -105 0
-102 -103 104 -105 0
-102 -103 -104 105 0
-11 -65 106 0
11 -106 0
65 -106 0
83 84 -107 0
83 85 -107 0
-84 -85 107 0
84 85 -107 0
-83 -85 107 0
-83 -84 107 0
105 106 107 -108 0
105 106 -107 108 0
105 -106 107 108 0
105 -106 -107 -108 0
-105 106 107 108 0
-105 106 -107 -108 0
-105 -106 107 -108 0
-105 -106 -107 108 0
-4 -87 109 0
4 -109 0
87 -109 0
86 88 -110 0
86 89 -110 0
-88 -89 110 0
88 89 -110 0
-86 -89 110 0
-86 -88 110 0
108 109 110 -111 0
108 109 -110 111 0
108 -109 110 111 0
108 -109 -110 -111 0
-108 109 110 111 0
-108 109 -110 -111 0
-108 -109 110 -111 0
-108 -109 -110 111 0
-1 -112 113 0
1 -113 0
112 -113 0
-114 0
111 113 114 -115 0
111 113 -114 115 0
111 -113 114 115 0
111 -113 -114 -115 0
-111 113 114 115 0
-111 113 -114 -115 0
-111 -113 114 -115 0
-111 -113 -114 115 0
-115 -116 0
115 116 0
-91 -116 117 0
91 -117 0
116 -117 0
117 0
